Problem:    
Rows:       13
Columns:    39 (39 integer, 39 binary)
Non-zeros:  194
Status:     INTEGER OPTIMAL
Objective:  score = 2916 (MAXimum)

   No.   Row name        Activity     Lower bound   Upper bound
------ ------------    ------------- ------------- -------------
     1 index_0                    10             0               
     2 index_1                     2             0               
     3 index_2                     2             0               
     4 index_3                     2             0               
     5 index_4                    10             0               
     6 index_5                     0             0               
     7 index_6                     3             0               
     8 index_7                     2             0               
     9 index_8                     0             0               
    10 index_9                     4             0               
    11 index_10                    2             0               
    12 length_max                985                        1131 
    13 length_min                985           848               

   No. Column name       Activity     Lower bound   Upper bound
------ ------------    ------------- ------------- -------------
     1 c0           *              1             0             1 
     2 c1           *              1             0             1 
     3 c2           *              1             0             1 
     4 c3           *              1             0             1 
     5 c4           *              1             0             1 
     6 c5           *              1             0             1 
     7 c6           *              1             0             1 
     8 c7           *              1             0             1 
     9 c8           *              1             0             1 
    10 c9           *              1             0             1 
    11 c10          *              1             0             1 
    12 s0           *              1             0             1 
    13 s1           *              0             0             1 
    14 s2           *              1             0             1 
    15 s3           *              0             0             1 
    16 s4           *              0             0             1 
    17 s5           *              0             0             1 
    18 s6           *              0             0             1 
    19 s7           *              1             0             1 
    20 s8           *              0             0             1 
    21 s9           *              0             0             1 
    22 s10          *              0             0             1 
    23 s11          *              1             0             1 
    24 s12          *              1             0             1 
    25 s13          *              0             0             1 
    26 s14          *              0             0             1 
    27 s15          *              1             0             1 
    28 s16          *              0             0             1 
    29 s17          *              1             0             1 
    30 s18          *              1             0             1 
    31 s19          *              0             0             1 
    32 s20          *              0             0             1 
    33 s21          *              0             0             1 
    34 s22          *              0             0             1 
    35 s23          *              1             0             1 
    36 s24          *              1             0             1 
    37 s25          *              1             0             1 
    38 s26          *              0             0             1 
    39 s27          *              0             0             1 

Integer feasibility conditions:

KKT.PE: max.abs.err = 0.00e+00 on row 0
        max.rel.err = 0.00e+00 on row 0
        High quality

KKT.PB: max.abs.err = 0.00e+00 on row 0
        max.rel.err = 0.00e+00 on row 0
        High quality

End of output
